GLPSOL--GLPK LP/MIP Solver 5.0
Parameter(s) specified in the command line:
 --lp ../modeles/20_249.lp --log 20_249.log
Reading problem data from '../modeles/20_249.lp'...
5061 rows, 10000 columns, 34960 non-zeros
4980 integer variables, all of which are binary
15087 lines were read
GLPK Integer Optimizer 5.0
5061 rows, 10000 columns, 34960 non-zeros
4980 integer variables, all of which are binary
Preprocessing...
4920 constraint coefficient(s) were reduced
5061 rows, 9980 columns, 34940 non-zeros
4980 integer variables, all of which are binary
Scaling...
 A: min|aij| =  6.452e-05  max|aij| =  4.000e+00  ratio =  6.200e+04
GM: min|aij| =  6.337e-02  max|aij| =  1.578e+01  ratio =  2.490e+02
EQ: min|aij| =  4.016e-03  max|aij| =  1.000e+00  ratio =  2.490e+02
2N: min|aij| =  3.906e-03  max|aij| =  1.773e+00  ratio =  4.539e+02
Constructing initial basis...
Size of triangular part is 5061
Solving LP relaxation...
GLPK Simplex Optimizer 5.0
5061 rows, 9980 columns, 34940 non-zeros
      0: obj =   4.000000000e+01 inf =   9.950e+01 (41)
Perturbing LP to avoid stalling [199]...
    299: obj =   4.993629032e-01 inf =   0.000e+00 (0)
Removing LP perturbation [1105]...
*  1105: obj =  -4.469341652e+00 inf =   3.099e-14 (0) 1
OPTIMAL LP SOLUTION FOUND
Integer optimization begins...
Long-step dual simplex will be used
+  1105: mip =     not found yet >=              -inf        (1; 0)
+  1579: >>>>>  -4.469341652e+00 >=  -4.469341652e+00 < 0.1% (469; 0)
+  1579: mip =  -4.469341652e+00 >=     tree is empty   0.0% (0; 937)
INTEGER OPTIMAL SOLUTION FOUND
Time used:   5.2 secs
Memory used: 14.5 Mb (15223488 bytes)
